1374113364690924731503,7,1,2,07,12,1,2,03,8,1,2,02,5,1,2,011,15,1,2,02,9,1,2,08,9,1,2,010,13,1,2,014,5,1,2,015,6,1,2,02,12,1,2,06,12,1,2,015,14,1,2,010,12,1,2,09,9,1,2,03,3,1,2,08,6,1,2,015,3,1,2,010,2,1,2,04,14,1,2,04,14,1,2,03,3,1,2,011,5,1,2,07,10,1,2,02,15,1,2,011,11,1,2,015,13,1,2,012,14,1,2,03,7,1,2,015,8,1,2,06,15,1,2,014,10,1,2,013,14,1,2,010,8,1,2,014,4,1,2,014,3,1,2,011,1,1,2,04,5,1,2,011,8,1,2,01,13,1,2,014,15,1,2,014,6,1,2,013,3,1,2,013,11,1,2,012,10,1,2,08,9,1,2,01,8,1,2,011,11,1,2,013,11,1,2,02,5,1,2,0